
Gurobi 7.5.1 (linux64) logging started Wed Oct 25 01:26:35 2017

Academic license - for non-commercial use only

Gurobi 7.5.1 (linux64) logging started Wed Oct 25 01:41:38 2017

Academic license - for non-commercial use only

Gurobi 7.5.1 (linux64) logging started Wed Oct 25 01:42:55 2017

Academic license - for non-commercial use only

Gurobi 7.5.1 (linux64) logging started Wed Oct 25 01:43:17 2017

Academic license - for non-commercial use only

Gurobi 7.5.1 (linux64) logging started Wed Oct 25 01:46:37 2017

Academic license - for non-commercial use only

Gurobi 7.5.1 (linux64) logging started Wed Oct 25 01:46:56 2017

Academic license - for non-commercial use only

Gurobi 7.5.1 (linux64) logging started Wed Oct 25 01:56:09 2017

Academic license - for non-commercial use only

Gurobi 7.5.1 (linux64) logging started Wed Oct 25 01:56:39 2017

Academic license - for non-commercial use only

Gurobi 7.5.1 (linux64) logging started Wed Oct 25 01:57:15 2017

Academic license - for non-commercial use only

Gurobi 7.5.1 (linux64) logging started Wed Oct 25 01:57:50 2017

Academic license - for non-commercial use only

Gurobi 7.5.1 (linux64) logging started Wed Oct 25 02:01:58 2017

Academic license - for non-commercial use only
